============================[ Problem Statistics ]=============================|                                                                             ||  Number of variables:          4242                                         ||  Number of clauses:           10321                                         ||  Parse time:                   0.71 s                                       ||                                                                             |============================[ Search Statistics ]==============================| Conflicts |          ORIGINAL         |          LEARNT          | Progress ||           |    Vars  Clauses Literals |    Limit  Clauses Lit/Cl |          |===============================================================================|       100 |    1591     6526  1130267 |     2392      100     53 | 62.501 % ||       250 |    1591     6526  1130267 |     2632      250     75 | 62.495 % |===============================================================================restarts              : 3conflicts             : 385            (360 /sec)decisions             : 649            (0.00 % random) (607 /sec)propagations          : 12024          (11237 /sec)conflict literals     : 31764          (94.57 % deleted)CPU time              : 1.07 sSATISFIABLE